sat
(:added-eqs                   12221
 :arith-bound-propagations-lp 33131
 :arith-conflicts             469
 :arith-fixed-eqs             3853
 :arith-lower                 50738
 :arith-make-feasible         21804
 :arith-max-columns           870
 :arith-max-rows              441
 :arith-offset-eqs            8418
 :arith-upper                 38439
 :binary-propagations         59942
 :conflicts                   661
 :decisions                   14908
 :del-clause                  65
 :final-checks                1
 :max-memory                  31.11
 :memory                      21.02
 :minimized-lits              2389
 :mk-bool-var                 3799
 :mk-clause                   1459
 :mk-clause-binary            5302
 :num-allocs                  790175082
 :num-checks                  1
 :propagations                74012
 :restarts                    3
 :rlimit-count                1592602
 :solve-eqs-elim-vars         355
 :solve-eqs-steps             2203
 :time                        4.45
 :total-time                  4.50)
